This is Ipopt version 3.10.1, running with linear solver mumps.

Number of nonzeros in equality constraint Jacobian...:      225
Number of nonzeros in inequality constraint Jacobian.:        0
Number of nonzeros in Lagrangian Hessian.............:     5568

Total number of variables............................:      114
                     variables with only lower bounds:        0
                variables with lower and upper bounds:      114
                     variables with only upper bounds:        0
Total number of equality constraints.................:       75
Total number of inequality constraints...............:        0
        inequality constraints with only lower bounds:        0
   inequality constraints with lower and upper bounds:        0
        inequality constraints with only upper bounds:        0

iter    objective    inf_pr   inf_du lg(mu)  ||d||  lg(rg) alpha_du alpha_pr  ls
   0 -6.7955378e-05 1.27e-10 4.29e-05  -1.0 0.00e+00    -  0.00e+00 0.00e+00   0
   1 -6.4128958e-05 2.22e-16 1.51e-04  -1.7 1.78e-02    -  9.97e-01 1.00e+00f  1
   2 -5.6748913e-05 8.53e-11 2.07e-06  -2.5 4.23e-02    -  1.00e+00 1.00e+00f  1
   3 -5.4465687e-05 7.77e-16 2.16e-07  -3.8 1.68e-02    -  1.00e+00 1.00e+00f  1
   4 -6.2457476e-05 1.25e-13 1.27e-05  -5.7 1.46e-02    -  9.71e-01 1.00e+00f  1
   5 -6.4284329e-05 8.88e-16 3.41e-05  -8.6 3.42e-03  -2.0 9.96e-01 1.00e+00h  1
   6 -7.0939977e-05 6.66e-16 3.94e-05  -8.6 1.16e-02  -2.5 1.00e+00 1.00e+00f  1
   7 -1.1536713e-04 2.22e-16 8.18e-05  -8.6 5.33e-02  -3.0 1.00e+00 1.00e+00f  1
   8 -1.5422402e-04 2.22e-16 9.81e-05  -8.6 2.92e-02  -2.5 1.00e+00 1.00e+00f  1
   9 -2.4883005e-05 2.22e-16 6.62e-04  -8.6 1.24e+00  -3.0 5.58e-02 2.11e-01h  2
iter    objective    inf_pr   inf_du lg(mu)  ||d||  lg(rg) alpha_du alpha_pr  ls
  10 -2.4883436e-05 2.22e-16 6.62e-04  -8.6 2.65e-02  -3.5 1.00e+00 1.22e-04f 14
  11 -2.4883436e-05 2.22e-16 6.62e-04  -8.6 1.53e-01  -4.0 1.00e+00 9.31e-10h 31
  12 -2.4883436e-05 2.22e-16 6.62e-04  -8.6 3.07e-02  -3.5 1.00e+00 7.45e-09h 28
  13 -2.4883474e-05 2.22e-16 6.62e-04  -8.6 2.15e-01  -4.0 1.00e+00 1.91e-06h 20
  14 -2.4887946e-05 2.22e-16 6.61e-04  -8.6 3.56e-02  -3.6 1.00e+00 9.77e-04f 11
  15 -1.6615148e-04 8.88e-16 3.11e-04  -8.6 3.41e-01  -4.1 1.00e+00 9.44e-01f  1
  16 -1.7553341e-04 6.66e-16 6.45e-04  -8.6 1.17e-01  -2.7 1.00e+00 1.28e-01f  1
  17 -2.0349211e-04 2.22e-16 9.42e-05  -8.6 1.81e-02  -2.3 1.00e+00 1.00e+00f  1
  18 -3.7277129e-04 2.22e-16 2.53e-04  -8.6 1.44e-01  -2.8 1.00e+00 4.19e-01f  1
  19 -6.7725869e-04 2.58e-14 4.71e-04  -8.6 7.93e-02  -2.4 1.00e+00 6.72e-01f  1
iter    objective    inf_pr   inf_du lg(mu)  ||d||  lg(rg) alpha_du alpha_pr  ls
  20 -7.3822354e-04 2.89e-14 4.85e-04  -8.6 4.60e-02  -1.9 1.00e+00 1.56e-01f  1
  21 -7.6589431e-04 2.33e-14 7.24e-04  -8.6 1.49e-02  -1.5 1.00e+00 2.55e-01f  1
  22 -8.6718365e-04 2.71e-14 1.01e-03  -8.6 5.77e-02  -2.0 1.00e+00 2.17e-01f  1
  23 -8.6717687e-04 2.71e-14 1.01e-03  -8.6 4.49e-01  -2.5 5.41e-04 1.91e-06f 20
  24 -8.6716536e-04 2.72e-14 8.38e-04  -8.6 1.59e+01  -2.0 2.98e-03 3.54e-07f 18
  25 -9.0397288e-04 2.71e-14 7.15e-04  -8.6 2.01e-02  -1.6 1.00e+00 2.35e-01f  1
  26 -1.0576548e-03 4.15e-14 1.39e-03  -8.6 1.09e-01  -2.1 1.00e+00 1.67e-01f  1
  27 -1.3631038e-03 5.02e-14 6.28e-04  -8.6 3.04e-02  -1.7 1.00e+00 1.00e+00f  1
  28 -1.3746132e-03 5.02e-14 1.07e-02  -8.6 1.97e+00  -2.1 3.11e-01 4.79e-04f  1
  29 -1.5398528e-03 5.44e-14 1.21e-03  -8.6 5.14e-02  -1.7 1.00e+00 2.77e-01f  1
iter    objective    inf_pr   inf_du lg(mu)  ||d||  lg(rg) alpha_du alpha_pr  ls
  30 -1.7560112e-03 1.55e-15 7.61e-04  -8.6 1.44e-02  -1.3 1.00e+00 9.72e-01f  1
  31 -2.5837050e-03 5.14e-14 1.27e-03  -8.6 7.79e-02  -1.8 1.00e+00 5.17e-01f  1
  32 -2.7958455e-03 3.95e-14 1.35e-03  -8.6 3.37e-02  -1.3 1.00e+00 2.35e-01f  1
  33 -3.7874762e-03 1.22e-13 2.32e-02  -8.6 6.26e-01  -1.8 1.00e+00 4.85e-02f  1
  34 -4.3369137e-03 9.54e-14 5.28e-03  -8.6 6.76e-02  -1.4 1.00e+00 2.19e-01f  1
  35 -4.3369106e-03 9.53e-14 5.26e-03  -8.6 3.75e-01  -1.9 8.37e-04 2.38e-07f 23
  36 -4.3368901e-03 9.53e-14 6.52e-03  -8.6 9.67e-01  -1.4 7.31e-02 5.20e-06f 16
  37 -4.9732700e-03 1.19e-13 2.13e-03  -8.6 2.23e-02  -1.0 1.00e+00 6.49e-01f  1
  38 -6.0056163e-03 1.74e-13 1.13e-02  -8.6 1.63e-01  -1.5 1.00e+00 1.44e-01f  1
  39 -6.1268956e-03 1.71e-13 5.33e-03  -8.6 4.03e-02  -1.1 1.00e+00 6.45e-02f  1
iter    objective    inf_pr   inf_du lg(mu)  ||d||  lg(rg) alpha_du alpha_pr  ls
  40 -1.0723094e-02 1.43e-13 2.45e-02  -8.6 4.60e-01  -1.5 1.00e+00 1.61e-01f  1
  41 -1.1882950e-02 2.25e-13 2.13e-02  -8.6 1.16e-01  -1.1 1.00e+00 1.22e-01f  1
  42 -1.3367486e-02 1.02e-13 6.64e-03  -8.6 2.86e-02  -0.7 1.00e+00 5.45e-01f  1
  43 -1.3953585e-02 9.96e-14 3.17e-02  -8.6 2.30e-01  -1.2 1.00e+00 2.65e-02f  1
  44 -1.4931599e-02 1.81e-13 8.81e-03  -8.6 3.74e-02  -0.7 1.00e+00 2.53e-01f  1
  45 -1.7318340e-02 3.32e-13 3.86e-02  -8.6 2.61e-01  -1.2 1.00e+00 8.71e-02f  1
  46 -1.7493824e-02 3.37e-13 1.61e-02  -8.6 4.99e-02  -0.8 1.00e+00 3.02e-02f  1
  47 -2.2631086e-02 6.86e-13 4.89e-02  -8.6 7.02e-01  -1.3 5.84e-01 6.44e-02f  1
  48 -2.4615656e-02 5.85e-13 1.98e-02  -8.6 8.74e-02  -0.8 1.00e+00 1.46e-01f  1
  49 -2.5703227e-02 5.90e-13 1.05e-02  -8.6 2.58e-02  -0.4 1.00e+00 2.60e-01f  1
iter    objective    inf_pr   inf_du lg(mu)  ||d||  lg(rg) alpha_du alpha_pr  ls
  50 -2.5987313e-02 5.79e-13 4.90e-02  -8.6 1.06e-01  -0.9 1.00e+00 1.78e-02f  1
  51 -2.7425184e-02 3.84e-13 2.11e-02  -8.6 2.54e-02  -0.5 1.00e+00 3.36e-01f  1
  52 -2.8867656e-02 3.49e-13 2.00e-02  -8.6 1.02e-01  -0.9 3.81e-01 9.33e-02f  1
  53 -3.1226789e-02 3.44e-13 6.20e-02  -8.6 1.52e+00  -1.4 1.59e-01 1.37e-02f  1
  54 -3.1229740e-02 3.44e-13 4.25e-02  -8.6 1.07e-01  -1.0 1.00e+00 2.31e-04f  1
  55 -3.4970580e-02 8.77e-13 4.38e-02  -8.6 7.76e-01  -1.5 9.24e-02 4.75e-02f  1
  56 -3.4970695e-02 8.77e-13 4.18e-02  -8.6 7.08e-02  -1.0 1.00e+00 1.10e-05f  1
  57 -4.5724964e-02 2.38e-12 3.45e-02  -8.6 3.19e-01  -1.5 5.69e-01 3.38e-01f  1
  58 -5.2637650e-02 4.28e-13 6.76e-03  -8.6 7.83e-02  -1.1 1.00e+00 8.20e-01f  1
  59 -5.5593133e-02 3.89e-13 1.71e-02  -8.6 5.38e-01  -1.6 2.32e-01 9.10e-02f  1
iter    objective    inf_pr   inf_du lg(mu)  ||d||  lg(rg) alpha_du alpha_pr  ls
  60 -5.5593584e-02 3.89e-13 3.43e-02  -8.6 1.12e-01  -1.1 1.00e+00 6.38e-05f  1
  61 -5.7291378e-02 1.05e-13 6.23e-03  -8.6 3.36e-02  -0.7 1.00e+00 7.29e-01f  1
  62 -7.0682155e-02 2.75e-14 1.33e-02  -8.6 1.72e-01  -1.2 7.44e-01 7.38e-01f  1
  63 -8.8044879e-02 2.11e-15 1.73e-02  -8.6 9.00e-02  -0.8 1.00e+00 9.25e-01f  1
  64 -8.8044875e-02 2.00e-15 1.73e-02  -8.6 3.77e-01  -1.3 1.44e-02 3.94e-08f 24
  65 -8.9289120e-02 2.04e-13 8.65e-02  -8.6 2.68e-01  -0.8 5.31e-01 1.62e-02f  1
  66 -8.9289117e-02 2.04e-13 8.65e-02  -8.6 3.13e+00  -1.3 1.89e-07 3.72e-09f 23
  67 -8.9289113e-02 2.04e-13 8.65e-02  -8.6 1.86e-01  -0.9 3.46e-08 3.36e-07f  2
  68 -8.9288456e-02 2.04e-13 8.65e-02  -8.6 1.08e+00  -1.4 2.81e-06 2.81e-06S  5
  69 -8.9288459e-02 2.04e-13 9.63e-02  -8.6 1.81e-01  -0.9 4.18e-01 7.63e-08f  8
iter    objective    inf_pr   inf_du lg(mu)  ||d||  lg(rg) alpha_du alpha_pr  ls
  70 -9.9077863e-02 3.55e-15 1.52e-02  -8.6 4.53e-02  -0.5 1.00e+00 9.82e-01f  1
  71 -1.3186696e-01 2.44e-15 3.49e-02  -8.6 2.90e-01  -1.0 2.22e-01 3.37e-01f  1
  72 -1.3599079e-01 7.48e-13 2.78e-02  -8.6 1.03e-01  -0.6 1.26e-01 9.57e-02f  1
  73 -1.3749250e-01 7.47e-13 2.95e-02  -8.6 6.76e+00  -1.0 2.31e-04 5.41e-04f  1
  74 -1.5132113e-01 4.57e-13 1.01e-01  -8.6 1.07e-01  -0.6 1.55e-04 3.89e-01f  1
  75 -1.5320582e-01 3.78e-13 1.41e-01  -8.6 4.42e-02  -0.2 5.50e-01 1.73e-01f  1
  76 -1.5325073e-01 3.57e-12 1.41e-01  -8.6 1.21e-01  -0.7 1.62e-06 1.09e-03f  1
  77 -1.5325073e-01 3.57e-12 1.41e-01  -8.6 2.76e+00  -1.1 1.02e-04 3.55e-09f 21
  78 -1.5325148e-01 3.57e-12 1.43e-01  -8.6 9.69e-01  -1.6 1.35e-01 4.92e-06f  1
  79 -1.5325160e-01 3.57e-12 1.18e-01  -8.6 4.48e-02  -0.3 2.76e-01 8.09e-06f  1
iter    objective    inf_pr   inf_du lg(mu)  ||d||  lg(rg) alpha_du alpha_pr  ls
  80 -1.5643371e-01 3.37e-12 1.12e-01  -8.6 1.68e-01  -0.8 9.24e-02 5.38e-02f  1
  81 -1.6941293e-01 3.32e-12 1.69e-01  -8.6 3.46e+00    -  4.36e-02 1.75e-02f  1
  82 -1.6995576e-01 3.32e-12 1.06e-01  -8.6 3.14e-02  -0.3 6.34e-01 8.73e-02f  1
  83 -1.7191280e-01 3.08e-12 1.14e-01  -8.6 1.97e-01    -  7.03e-01 7.21e-02f  1
  84 -1.9128291e-01 2.62e-12 1.48e-01  -8.6 1.08e+00    -  1.75e-06 1.50e-01f  1
  85 -2.1063633e-01 4.55e-12 1.67e-01  -8.6 2.45e-01  -0.8 1.09e-03 2.36e-01f  1
  86 -2.1063630e-01 4.55e-12 2.08e-01  -8.6 2.67e-01    -  9.72e-01 4.92e-07f 21
  87 -2.1460234e-01 4.49e-12 1.90e-01  -8.6 1.13e+00    -  5.12e-02 1.36e-02f  1
  88 -2.3155996e-01 4.20e-12 1.67e-01  -8.6 1.09e+00    -  1.60e-01 6.26e-02f  1
  89 -2.4777236e-01 3.93e-12 1.61e-01  -8.6 1.08e+00    -  8.99e-02 6.53e-02f  1
iter    objective    inf_pr   inf_du lg(mu)  ||d||  lg(rg) alpha_du alpha_pr  ls
  90 -2.7639621e-01 8.10e-12 1.36e-01  -8.6 1.12e+00    -  7.68e-02 1.22e-01f  1
  91 -2.8640070e-01 7.77e-12 1.26e-01  -8.6 1.31e+00    -  1.49e-02 3.99e-02f  1
  92 -2.8640069e-01 7.77e-12 1.66e-01  -8.6 7.81e-02    -  1.00e+00 1.40e-06f 17
  93 -2.8868634e-01 9.11e-13 1.97e-02  -8.6 3.53e-02    -  9.49e-01 8.83e-01f  1
  94 -2.8874015e-01 1.39e-11 2.10e-01  -8.6 1.16e-02    -  2.08e-03 2.13e-01f  1
  95 -2.8882533e-01 3.84e-12 5.98e-02  -8.6 9.38e-03    -  1.00e+00 7.23e-01f  1
  96 -2.8883107e-01 2.36e-12 1.29e-01  -8.6 3.06e-03    -  1.00e+00 3.84e-01f  1
  97 -2.8883485e-01 9.14e-12 2.68e-02  -8.6 1.91e-03    -  1.00e+00 8.98e-01f  1
  98 -2.8883494e-01 7.34e-12 1.16e-07  -8.6 2.16e-04    -  1.00e+00 1.00e+00f  1
  99 -2.8883506e-01 7.60e-13 8.56e-13  -9.0 2.74e-07    -  1.00e+00 1.00e+00h  1

Number of Iterations....: 99

                                   (scaled)                 (unscaled)
Objective...............:  -2.8883506176511453e-01   -2.8883506176511453e-01
Dual infeasibility......:   8.5634200287575066e-13    8.5634200287575066e-13
Constraint violation....:   7.5983663805345714e-13    7.5983663805345714e-13
Complementarity.........:   1.5130247601073913e-09    1.5130247601073913e-09
Overall NLP error.......:   1.5130247601073913e-09    1.5130247601073913e-09


Number of objective function evaluations             = 399
Number of objective gradient evaluations             = 100
Number of equality constraint evaluations            = 399
Number of inequality constraint evaluations          = 0
Number of equality constraint Jacobian evaluations   = 1
Number of inequality constraint Jacobian evaluations = 0
Number of Lagrangian Hessian evaluations             = 99
Total CPU secs in IPOPT (w/o function evaluations)   =      1.640
Total CPU secs in NLP function evaluations           =     34.120

EXIT: Optimal Solution Found.
